
        $ From http://www.csplib.org/Problems/prob009/data/helmut.pdf
        $ Problem number 146
        $ Sequence length : 25
        language ESSENCE' 1.0
        letting sizemaster be 492
        letting sizes be sequence(3,5,9,11,12,21,24,27,30,44,45,50,54,55,57,63,95,101,112,117,123,134,140,235,257)
        